DATASET = "thpack7";
INSTANCE = "006";

WIDTH = 233;
HEIGHT = 220;
LENGTH = 587;

NO_OF_SHAPES = 20;
size = [|
  86,84,45 |
  81,45,34 |
  70,54,37 |
  71,61,52 |
  78,73,40 |
  69,63,46 |
  72,67,56 |
  75,75,36 |
  94,88,50 |
  65,51,50 |
  81,56,46 |
  68,44,27 |
  108,52,45 |
  114,80,44 |
  84,39,22 |
  62,58,30 |
  86,68,33 |
  59,52,22 |
  42,33,21 |
  110,74,38 |
|];

verticality = [|
  1,1,1 |
  0,1,1 |
  1,1,1 |
  1,1,1 |
  1,1,1 |
  1,1,1 |
  1,1,1 |
  0,0,1 |
  1,1,1 |
  1,1,1 |
  1,1,1 |
  0,1,1 |
  0,1,1 |
  0,1,1 |
  0,1,1 |
  0,1,1 |
  0,0,1 |
  0,0,1 |
  0,1,1 |
  0,1,1 |
|];

box_count = [
  6,
  14,
  13,
  7,
  8,
  7,
  8,
  9,
  5,
  10,
  8,
  7,
  9,
  7,
  6,
  6,
  8,
  3,
  10,
  5,
];
